
  32    4
  10   10   10   10

   0   0   0   0   0   2 2 3 
   8  10  10  10  10   3 7 6 4 
   2  10  10  10  10   4 18 9 8 7 
   4  10  10  10  10   2 18 5 
  10  10  10  10  10   4 15 14 13 11 
   5  10  10  10  10   4 23 18 14 12 
   9  10  10  10  10   3 23 16 10 
   7  10  10  10  10   3 15 14 11 
   2  10  10  10  10   3 15 14 11 
   9  10  10  10  10   2 15 14 
   1  10  10  10  10   4 31 23 19 17 
   4  10  10  10  10   2 19 15 
  10  10  10  10  10   4 31 23 21 19 
   5  10  10  10  10   3 31 21 19 
   8  10  10  10  10   2 31 17 
   7  10  10  10  10   4 31 22 21 20 
   3  10  10  10  10   3 22 21 20 
   4  10  10  10  10   1 19 
   7  10  10  10  10   2 22 20 
   9  10  10  10  10   3 27 26 24 
   4  10  10  10  10   3 28 27 25 
   5  10  10  10  10   2 27 24 
   6  10  10  10  10   2 29 27 
   1  10  10  10  10   2 30 29 
  10  10  10  10  10   2 30 29 
   2  10  10  10  10   1 28 
   4  10  10  10  10   1 30 
  10  10  10  10  10   1 29 
   3  10  10  10  10   1 32
   6  10  10  10  10   1 32
  10  10  10  10  10   1 32
   0   0   0   0   0   0 
